Traveling Salesman Problem/TSP_generados/Aleatorio1621104179_19.tsp
NAME: Aleatorio1621104179_19.tsp
COMMENT: Randomly generated scenario
TYPE: TSP
DIMENSION: 19
EDGE_WEIGHT_TYPE: ATT
NODE_COORD_SECTION
1 35.64 31.99
2 43.08 19.8
3 12.26 34.48
4 6.09 8.9
5 10.6 3.26
6 21.66 9.88
7 14.66 12.74
8 41.89 26.21
9 24.81 14.89
10 20.17 12.82
11 28.29 32.13
12 12.97 14.14
13 9.42 45.72
14 18.4 34.02
15 27.63 12.12
16 42.94 26.23
17 8.42 13.62
18 6.02 31.99
19 29.48 43.91
