Traveling Salesman Problem/TSP_generados/Aleatorio1621104179_19.opt.tour
NAME: Aleatorio1621104179_19.opt.tour
COMMENT: Optimal solution for Aleatorio1621104179_19 (162.2051064580582)
TYPE: TOUR
DIMENSION: 19
TOUR_SECTION
1 8 16 2 15 9 6 10 7 12 5 4 17 18 13 3 14 19 11
-1
EOF
